%BLOCK LATTICE_CART
Bohr
  10.240000000000   0.000000000000   0.000000000000
   0.000000000000  10.240000000000   0.000000000000
   0.000000000000   0.000000000000  10.240000000000
%ENDBLOCK LATTICE_CART
%BLOCK POSITIONS_FRAC
Si  0.00000000  0.00000000  0.00000000
Si  0.50000000  0.50000000  0.00000000
Si  0.50000000  0.00000000  0.50000000
Si  0.00000000  0.50000000  0.50000000
Si  0.25000000  0.25000000  0.25000000
Si  0.75000000  0.75000000  0.25000000
Si  0.75000000  0.25000000  0.75000000
Si  0.25000000  0.75000000  0.750000000
%ENDBLOCK POSITIONS_FRAC
